<?xml version = "1.0" encoding="UTF-8" standalone="yes"?>
<CPLEXSolution version="1.2">
 <header
   problemName="IloCplex"
   solutionName="incumbent"
   solutionIndex="-1"
   objectiveValue="-0.39999999999999991"
   solutionTypeValue="3"
   solutionTypeString="primal"
   solutionStatusValue="101"
   solutionStatusString="integer optimal solution"
   solutionMethodString="mip"
   primalFeasible="1"
   dualFeasible="1"
   MIPNodes="0"
   MIPIterations="0"
   writeLevel="1"/>
 <quality
   epInt="1.0000000000000001e-05"
   epRHS="9.9999999999999995e-07"
   maxIntInfeas="0"
   maxPrimalInfeas="0"
   maxX="2"
   maxSlack="2.4000000000000004"/>
 <linearConstraints>
  <constraint name="C1" index="0" slack="0"/>
  <constraint name="C2" index="1" slack="2.4000000000000004"/>
 </linearConstraints>
 <variables>
  <variable name="X1" index="0" value="1.6000000000000001"/>
  <variable name="X2" index="1" value="-2"/>
 </variables>
 <objectiveValues>
  <objective index="0" name="OBJ" value="-0.39999999999999991"/>
 </objectiveValues>
</CPLEXSolution>
